npieces = 10;	
nplayers = 50;	
duration = [8, 4, 1, 5, 2, 1, 2, 4, 5, 8];
rehearsal = [[0, 1, 1, 1, 1, 0, 1, 0, 1, 0], [1, 0, 1, 1, 1, 1, 1, 1, 1, 1], [0, 1, 0, 1, 1, 1, 1, 1, 1, 1], [1, 0, 1, 0, 0, 1, 1, 0, 1, 1], [0, 0, 1, 0, 1, 0, 0, 1, 1, 1], [0, 1, 1, 1, 0, 0, 1, 1, 1, 0], [1, 0, 0, 0, 0, 0, 0, 1, 1, 0], [1, 1, 0, 1, 0, 0, 1, 1, 1, 1], [0, 1, 0, 1, 1, 1, 1, 1, 0, 0], [1, 1, 0, 1, 0, 1, 1, 1, 1, 1], [0, 1, 0, 1, 0, 1, 1, 1, 1, 1], [1, 1, 0, 0, 1, 1, 1, 0, 0, 1], [1, 1, 1, 1, 0, 1, 0, 0, 1, 0], [0, 0, 0, 1, 1, 1, 0, 1, 1, 0], [1, 1, 1, 0, 0, 0, 1, 1, 0, 1], [0, 1, 0, 0, 0, 1, 0, 0, 1, 0], [1, 1, 1, 1, 0, 1, 0, 1, 1, 1], [0, 0, 1, 1, 1, 1, 0, 0, 1, 1], [1, 1, 1, 1, 0, 1, 1, 0, 0, 1], [1, 1, 1, 1, 1, 0, 1, 1, 0, 1], [1, 1, 0, 0, 1, 1, 0, 1, 1, 1], [0, 0, 1, 1, 1, 1, 1, 0, 0, 0], [1, 1, 0, 0, 0, 1, 1, 1, 1, 1], [0, 1, 1, 0, 1, 1, 1, 1, 1, 1], [1, 1, 0, 0, 0, 0, 0, 1, 0, 0], [1, 0, 1, 0, 1, 0, 0, 1, 0, 1], [1, 0, 1, 0, 0, 0, 0, 1, 1, 0], [0, 1, 0, 1, 0, 1, 1, 1, 0, 0], [1, 1, 0, 0, 1, 1, 0, 0, 0, 1], [0, 1, 0, 1, 1, 0, 1, 1, 0, 0], [1, 0, 1, 1, 1, 0, 1, 1, 1, 0], [0, 1, 0, 1, 1, 1, 0, 1, 1, 0], [1, 1, 0, 1, 1, 1, 0, 0, 1, 1], [0, 1, 0, 0, 1, 1, 0, 1, 1, 0], [1, 0, 1, 1, 0, 1, 0, 1, 1, 0], [1, 1, 0, 1, 0, 0, 0, 1, 1, 0], [1, 1, 1, 1, 0, 0, 1, 1, 0, 1], [1, 1, 0, 1, 0, 1, 0, 1, 0, 1], [1, 0, 1, 1, 0, 1, 0, 1, 0, 1], [1, 1, 0, 1, 1, 1, 1, 1, 0, 1], [0, 1, 1, 0, 0, 1, 1, 1, 1, 1], [0, 0, 1, 1, 0, 0, 1, 1, 0, 1], [1, 0, 1, 1, 0, 1, 1, 1, 1, 1], [1, 0, 1, 1, 1, 1, 1, 1, 0, 0], [1, 1, 1, 0, 0, 1, 1, 1, 1, 0], [1, 0, 1, 0, 0, 0, 0, 1, 1, 1], [1, 0, 0, 0, 0, 1, 1, 0, 0, 0], [1, 0, 0, 1, 0, 1, 1, 0, 1, 0], [0, 1, 1, 1, 1, 1, 1, 1, 0, 0], [1, 1, 1, 1, 0, 1, 0, 0, 1, 1]];